unsat
(:max-memory          18.43
 :memory              18.33
 :num-allocs          50962
 :rlimit-count        921
 :solve-eqs-elim-vars 1
 :solve-eqs-steps     1
 :time                0.00
 :total-time          0.01)
